Cost: 1891
0-20-18-17-12-32-7-23-34-13-46-36-14-35-15-16-45-39-19-44-21-40-0
0-42-28-2-41-43-22-0
0-26-1-9-33-27-3-24-4-29-30-31-5-6-10-8-11-37-38-47-25-0
Cost: 1891
0-20-18-17-12-32-7-23-34-13-46-36-14-35-15-16-45-39-19-44-21-40-0
0-42-28-2-41-43-22-0
0-26-1-9-33-27-3-24-4-29-30-31-5-6-10-8-11-37-38-47-25-0
Cost: 1891
0-20-18-17-12-32-7-23-34-13-46-36-14-35-15-16-45-39-19-44-21-40-0
0-42-28-2-41-43-22-0
0-26-1-9-33-27-3-24-4-29-30-31-5-6-10-8-11-37-38-47-25-0
Cost: 1891
0-20-18-17-12-32-7-23-34-13-46-36-14-35-15-16-45-39-19-44-21-40-0
0-42-28-2-41-43-22-0
0-26-1-9-33-27-3-24-4-29-30-31-5-6-10-8-11-37-38-47-25-0
Cost: 1891
0-20-18-17-12-32-7-23-34-13-46-36-14-35-15-16-45-39-19-44-21-40-0
0-42-28-2-41-43-22-0
0-26-1-9-33-27-3-24-4-29-30-31-5-6-10-8-11-37-38-47-25-0
Cost: 1891
0-20-18-17-12-32-7-23-34-13-46-36-14-35-15-16-45-39-19-44-21-40-0
0-42-28-2-41-43-22-0
0-26-1-9-33-27-3-24-4-29-30-31-5-6-10-8-11-37-38-47-25-0
Cost: 1891
0-20-18-17-12-32-7-23-34-13-46-36-14-35-15-16-45-39-19-44-21-40-0
0-42-28-2-41-43-22-0
0-26-1-9-33-27-3-24-4-29-30-31-5-6-10-8-11-37-38-47-25-0
Cost: 1891
0-20-18-17-12-32-7-23-34-13-46-36-14-35-15-16-45-39-19-44-21-40-0
0-42-28-2-41-43-22-0
0-26-1-9-33-27-3-24-4-29-30-31-5-6-10-8-11-37-38-47-25-0
Cost: 1891
0-20-18-17-12-32-7-23-34-13-46-36-14-35-15-16-45-39-19-44-21-40-0
0-42-28-2-41-43-22-0
0-26-1-9-33-27-3-24-4-29-30-31-5-6-10-8-11-37-38-47-25-0
Cost: 1891
0-20-18-17-12-32-7-23-34-13-46-36-14-35-15-16-45-39-19-44-21-40-0
0-42-28-2-41-43-22-0
0-26-1-9-33-27-3-24-4-29-30-31-5-6-10-8-11-37-38-47-25-0
Cost: 1891
0-20-18-17-12-32-7-23-34-13-46-36-14-35-15-16-45-39-19-44-21-40-0
0-42-28-2-41-43-22-0
0-26-1-9-33-27-3-24-4-29-30-31-5-6-10-8-11-37-38-47-25-0
Cost: 1891
0-20-18-17-12-32-7-23-34-13-46-36-14-35-15-16-45-39-19-44-21-40-0
0-26-1-9-33-27-3-24-4-29-30-31-5-6-10-8-11-37-38-47-25-0
0-42-28-2-41-43-22-0
Cost: 1891
0-20-18-17-12-32-7-23-34-13-46-36-14-35-15-16-45-39-19-44-21-40-0
0-26-1-9-33-27-3-24-4-29-30-31-5-6-10-8-11-37-38-47-25-0
0-42-28-2-41-43-22-0
Cost: 1891
0-20-18-17-12-32-7-23-34-13-46-36-14-35-15-16-45-39-19-44-21-40-0
0-26-1-9-33-27-3-24-4-29-30-31-5-6-10-8-11-37-38-47-25-0
0-42-28-2-41-43-22-0
Cost: 1891
0-20-18-17-12-32-7-23-34-13-46-36-14-35-15-16-45-39-19-44-21-40-0
0-26-1-9-33-27-3-24-4-29-30-31-5-6-10-8-11-37-38-47-25-0
0-42-28-2-41-43-22-0
Cost: 1891
0-20-18-17-12-32-7-23-34-13-46-36-14-35-15-16-45-39-19-44-21-40-0
0-26-1-9-33-27-3-24-4-29-30-31-5-6-10-8-11-37-38-47-25-0
0-42-28-2-41-43-22-0
Cost: 1891
0-20-18-17-12-32-7-23-34-13-46-36-14-35-15-16-45-39-19-44-21-40-0
0-26-1-9-33-27-3-24-4-29-30-31-5-6-10-8-11-37-38-47-25-0
0-42-28-2-41-43-22-0
Cost: 1891
0-20-18-17-12-32-7-23-34-13-46-36-14-35-15-16-45-39-19-44-21-40-0
0-26-1-9-33-27-3-24-4-29-30-31-5-6-10-8-11-37-38-47-25-0
0-42-28-2-41-43-22-0
Cost: 1891
0-20-18-17-12-32-7-23-34-13-46-36-14-35-15-16-45-39-19-44-21-40-0
0-26-1-9-33-27-3-24-4-29-30-31-5-6-10-8-11-37-38-47-25-0
0-42-28-2-41-43-22-0
Cost: 1891
0-20-18-17-12-32-7-23-34-13-46-36-14-35-15-16-45-39-19-44-21-40-0
0-26-1-9-33-27-3-24-4-29-30-31-5-6-10-8-11-37-38-47-25-0
0-42-28-2-41-43-22-0
Cost: 1891
0-20-18-17-12-32-7-23-34-13-46-36-14-35-15-16-45-39-19-44-21-40-0
0-26-1-9-33-27-3-24-4-29-30-31-5-6-10-8-11-37-38-47-25-0
0-42-28-2-41-43-22-0
Cost: 1891
0-20-18-17-12-32-7-23-34-13-46-36-14-35-15-16-45-39-19-44-21-40-0
0-26-1-9-33-27-3-24-4-29-30-31-5-6-10-8-11-37-38-47-25-0
0-42-28-2-41-43-22-0
Cost: 1891
0-20-18-17-12-32-7-23-34-13-46-36-14-35-15-16-45-39-19-44-21-40-0
0-26-1-9-33-27-3-24-4-29-30-31-5-6-10-8-11-37-38-47-25-0
0-42-28-2-41-43-22-0
Cost: 1891
0-20-18-17-12-32-7-23-34-13-46-36-14-35-15-16-45-39-19-44-21-40-0
0-26-1-9-33-27-3-24-4-29-30-31-5-6-10-8-11-37-38-47-25-0
0-42-28-2-41-43-22-0
Cost: 1891
0-20-18-17-12-32-7-23-34-13-46-36-14-35-15-16-45-39-19-44-21-40-0
0-26-1-9-33-27-3-24-4-29-30-31-5-6-10-8-11-37-38-47-25-0
0-42-28-2-41-43-22-0
Cost: 1891
0-20-18-17-12-32-7-23-34-13-46-36-35-14-15-16-45-39-19-44-21-40-0
0-26-42-28-2-41-43-22-0
0-1-9-33-27-3-24-4-29-30-31-5-6-10-8-11-37-38-47-25-0
Cost: 1891
0-20-18-17-12-32-7-23-34-13-46-36-14-35-15-16-45-39-19-44-21-40-0
0-26-1-9-33-27-3-24-4-29-30-31-5-6-10-8-11-37-38-47-25-0
0-42-28-2-41-43-22-0
Cost: 1891
0-20-18-17-12-32-7-23-34-13-46-36-14-35-15-16-45-39-19-44-21-40-0
0-26-1-9-33-27-3-24-4-29-30-31-5-6-10-8-11-37-38-47-25-0
0-42-28-2-41-43-22-0
Cost: 1891
0-20-18-17-12-32-7-23-34-13-46-36-14-35-15-16-45-39-19-44-21-40-0
0-26-1-9-33-27-3-24-4-29-30-31-5-6-10-8-11-37-38-47-25-0
0-42-28-2-41-43-22-0
Cost: 1891
0-20-18-17-12-32-7-23-34-13-46-36-14-35-15-16-45-39-19-44-21-40-0
0-26-1-9-33-27-3-24-4-29-30-31-5-6-10-8-11-37-38-47-25-0
0-42-28-2-41-43-22-0
Cost: 1891
0-20-18-17-12-32-7-23-34-13-46-36-14-35-15-16-45-39-19-44-21-40-0
0-26-1-9-33-27-3-24-4-29-30-31-5-6-10-8-11-37-38-47-25-0
0-42-28-2-41-43-22-0
Cost: 1891
0-40-20-18-17-12-32-7-23-34-13-46-36-35-14-15-16-45-39-19-44-21-0
0-42-28-2-41-43-22-0
0-26-1-9-33-27-3-24-4-29-30-31-5-6-10-8-11-37-38-47-25-0
Cost: 1891
0-26-1-9-33-27-3-24-4-29-30-31-5-6-10-8-11-37-38-47-25-0
0-40-20-18-17-12-32-7-23-34-13-46-36-14-35-15-16-45-39-19-44-21-0
0-42-28-2-41-43-22-0
Cost: 1891
0-1-9-33-27-3-24-4-29-30-31-5-6-10-8-11-37-38-47-25-0
0-20-18-17-12-32-7-23-34-13-46-36-14-35-15-16-45-39-19-44-21-40-0
0-26-42-28-2-41-43-22-0
Cost: 1891
0-20-18-17-12-32-7-23-34-13-46-36-14-35-15-16-45-39-19-44-21-40-0
0-26-1-9-33-27-3-24-4-29-30-31-5-6-10-8-11-37-38-47-25-0
0-42-28-2-41-43-22-0
